NAME: tsp20-44
TYPE: TSP
DIMENSION: 20
EDGE_WEIGHT_TYPE: EUC_2D
NODE_COORD_SECTION
0 54 45
1 86 62
2 65 41
3 69 64
4 60 80
5 81 77
6 75 29
7 60 38
8 67 21
9 28 88
10 94 59
11 32 25
12 11 32
13 1 51
14 60 76
15 85 46
16 89 54
17 62 36
18 87 2
19 75 78
EOF